0000000000000000
0000000000000000
0000000000000000
0000000000000000
0000110001100000
0000011001100000
0000011000100000
0000111100100000
0000100111100000
0000100011000000
0000110011000000
0000110001100000
0000110000100000
0000000000000000
0000000000000000
0000000000000000
